     Program PWSCF v.6.8 starts on 19Sep2021 at 10:59:28

     R & G space division:  proc/nbgrp/npool/nimage =       8

     Waiting for input...
     Reading input from standard input

     Current dimensions of program PWSCF are:
     Max number of different atomic species (ntypx) = 10
     Max number of k-points (npk) =  40000
     Max angular momentum in pseudopotentials (lmaxx) =  4
     file C_pbe_paw.UPF: wavefunction(s)  2S 2P renormalized

     DFT-D3 Dispersion Correction (3-body terms):
       Reference C6 values for interpolation:

         atom   Coordination number   C6
         C          0.000            98.23
         C          0.987            86.49
         C          1.998            58.72
         C          2.999            51.56
         C          3.984            36.41

       Values used:

         atom   Coordination number  R0_AB[au]  C6      C8
         C          3.315            2.750     48.26   1395.72
         C          3.315            2.750     48.26   1395.72

         Molecular C6 ( Ry / a.u.^6 ) =       193.03

     Message from routine setup:
     using ibrav=0 with symmetry is DISCOURAGED, use correct ibrav instead

     Subspace diagonalization in iterative solution of the eigenvalue problem:
     a serial algorithm will be used

     Using Slab Decomposition

     bravais-lattice index     =            0
     lattice parameter (alat)  =       4.6487  a.u.
     unit-cell volume          =     530.5041 (a.u.)^3
     number of atoms/cell      =            2
     number of atomic types    =            1
     number of electrons       =         8.00
     number of Kohn-Sham states=            4
     kinetic-energy cutoff     =      40.0000  Ry
     charge density cutoff     =     306.0000  Ry
     scf convergence threshold =      1.0E-05
     mixing beta               =       0.7000
     number of iterations used =            8  plain     mixing
     energy convergence thresh.=      1.0E-04
     force convergence thresh. =      1.0E-03
     press convergence thresh. =      5.0E-01
     Exchange-correlation= SLA  PW   PBX  PBC
                           (   1   4   3   4   0   0   0)
     nstep                     =           50

     celldm(1)=   4.648726  celldm(2)=   0.000000  celldm(3)=   0.000000
     celldm(4)=   0.000000  celldm(5)=   0.000000  celldm(6)=   0.000000

     crystal axes: (cart. coord. in units of alat)
               a(1) = (   1.000000   0.000000   0.000000 )
               a(2) = (  -0.500000   0.866025   0.000000 )
               a(3) = (   0.000000   0.000000   6.097561 )

     reciprocal axes: (cart. coord. in units 2 pi/alat)
               b(1) = (  1.000000  0.577350  0.000000 )
               b(2) = (  0.000000  1.154701  0.000000 )
               b(3) = (  0.000000  0.000000  0.164000 )

     PseudoPot. # 1 for C  read from file:
     ./C_pbe_paw.UPF
     MD5 check sum: 141bb66bc2884774a16346b0c33000d4
     Pseudo is Projector augmented-wave + core cor, Zval =  4.0
     Generated using &quot;atomic&quot; code by A. Dal Corso  v.6.4
     Shape of augmentation charge: PSQ
     Using radial grid of 1073 points,  4 beta functions with:
                l(1) =   0
                l(2) =   0
                l(3) =   1
                l(4) =   1
     Q(r) pseudized with 0 coefficients

     atomic species   valence    mass     pseudopotential
        C              4.00    12.01070     C ( 1.00)

      2 Sym. Ops. (no inversion) found

   Cartesian axes

     site n.     atom                  positions (alat units)
         1           C   tau(   1) = (   0.0000000   0.0000000   2.7140244  )
         2           C   tau(   2) = (  -0.0000050   0.5773532   2.7140244  )

     number of k points=     9
                       cart. coord. in units 2pi/alat
        k(    1) = (   0.0000000   0.0000000   0.0000000), wk =   0.0800000
        k(    2) = (   0.0000000   0.2309401   0.0000000), wk =   0.3200000
        k(    3) = (   0.0000000   0.4618802   0.0000000), wk =   0.3200000
        k(    4) = (   0.2000000   0.3464102   0.0000000), wk =   0.1600000
        k(    5) = (   0.2000000   0.5773503   0.0000000), wk =   0.3200000
        k(    6) = (  -0.2000000   0.1154701   0.0000000), wk =   0.1600000
        k(    7) = (  -0.4000000   0.2309401   0.0000000), wk =   0.1600000
        k(    8) = (  -0.2000000   0.3464102   0.0000000), wk =   0.3200000
        k(    9) = (  -0.4000000   0.4618802   0.0000000), wk =   0.1600000

     Check: negative core charge=   -0.000004

     Initial potential from superposition of free atoms

     starting charge    7.99992, renormalised to    8.00000

     negative rho (up, down):  2.172E-05 0.000E+00
     Starting wfcs are    8 randomized atomic wfcs
     Checking if some PAW data can be deallocated...

     Self-consistent Calculation

     iteration #  1     ecut=    40.00 Ry     beta= 0.70
     Davidson diagonalization with overlap
     ethr =  1.00E-02,  avg # of iterations =  2.0

     negative rho (up, down):  1.027E-05 0.000E+00

     total energy              =     -36.86352065 Ry
     estimated scf accuracy    <       0.19378211 Ry

[...]

     End of self-consistent calculation

          k = 0.0000 0.0000 0.0000 (  2289 PWs)   bands (ev):

   -21.2747  -9.3586  -4.7354  -4.7352

[...]

          k =-0.2000 0.1155 0.0000 (  2266 PWs)   bands (ev):

[...]

     highest occupied level (ev):    -3.1968

!    total energy              =     -36.88973080 Ry

     total all-electron energy =      -152.417925 Ry
     estimated scf accuracy    <       0.00000082 Ry

     The total energy is the sum of the following terms:
     one-electron contribution =    -157.57233808 Ry
     hartree contribution      =      80.41957336 Ry
     xc contribution           =      -9.28614673 Ry
     ewald contribution        =      61.88839215 Ry
     DFT-D3 Dispersion         =      -0.00522355 Ry
     one-center paw contrib.   =     -12.33398794 Ry

     convergence has been achieved in   4 iterations

[...]

     Forces acting on atoms (cartesian axes, Ry/au):

     atom    1 type  1   force =     0.00005141   -0.00002968   -0.00002036
     atom    2 type  1   force =    -0.00005141    0.00002968    0.00002036

     Total force =     0.000089     Total SCF correction =     0.000480
     SCF correction compared to forces is large: reduce conv_thr to get better values

     Computing stress (Cartesian axis) and pressure

     negative rho (up, down):  4.063E-05 0.000E+00
          total   stress  (Ry/bohr**3)                   (kbar)     P=        4.06
   0.00004601   0.00000025  -0.00000008            6.77        0.04       -0.01
   0.00000025   0.00004629   0.00000005            0.04        6.81        0.01
  -0.00000008   0.00000005  -0.00000958           -0.01        0.01       -1.41

     BFGS Geometry Optimization
     Energy error            =      0.0E+00 Ry
     Gradient error          =      5.1E-05 Ry/Bohr
     Cell gradient error     =      6.8E+00 kbar

     number of scf cycles    =   1
     number of bfgs steps    =   0

     enthalpy           new  =     -36.8897307957 Ry

     new trust radius        =       0.0053313859 bohr
     new conv_thr            =       0.0000100000 Ry

     new unit-cell volume =    531.72894 a.u.^3 (    78.79410 Ang^3 )
     density =      0.50624 g/cm^3

CELL_PARAMETERS (angstrom)
   2.462829553   0.000015183   0.000000000
  -1.231401628   2.132880550   0.000000000
   0.000000000   0.000000000  15.000000000

ATOMIC_POSITIONS (crystal)
C             0.0000073733       -0.0000073733        0.4450992908
C             0.3333226317        0.6666773973        0.4451007272

     Writing output data file ./pw_run.save/
     NEW-OLD atomic charge density approx. for the potential

[...]

     negative rho (up, down):  3.832E-05 0.000E+00
     extrapolated charge    8.01843, renormalised to    8.00000

[...]

     Total force =     0.000215     Total SCF correction =     0.000113
     SCF correction compared to forces is large: reduce conv_thr to get better values

[...]

     Energy error            =      4.3E-05 Ry
     Gradient error          =      1.3E-04 Ry/Bohr
     Cell gradient error     =      3.4E+00 kbar

     number of scf cycles    =   2
     number of bfgs steps    =   1

     enthalpy           old  =     -36.8897307957 Ry
     enthalpy           new  =     -36.8897736782 Ry

     CASE: enthalpy          _new < enthalpy          _old

     new trust radius        =       0.0052034151 bohr
     new conv_thr            =       0.0000001000 Ry

     new unit-cell volume =    532.92603 a.u.^3 (    78.97149 Ang^3 )
     density =      0.50510 g/cm^3

[...]

ATOMIC_POSITIONS (crystal)
C            -0.0000298314        0.0000298314        0.4450993676
C             0.3333598364        0.6666401926        0.4451006504

     Writing output data file ./pw_run.save/
     NEW-OLD atomic charge density approx. for the potential

[...]

     negative rho (up, down):  3.534E-05 0.000E+00
     extrapolated charge    8.01797, renormalised to    8.00000

[...]

     Total force =     0.000797     Total SCF correction =     0.000030

[...]

     Energy error            =      1.7E-05 Ry
     Gradient error          =      4.9E-04 Ry/Bohr
     Cell gradient error     =      3.0E-01 kbar

     bfgs converged in   3 scf cycles and   2 bfgs steps
     (criteria: energy <  1.0E-04 Ry, force <  1.0E-03Ry/Bohr, cell <  5.0E-01kbar)

     End of BFGS Geometry Optimization

     Final enthalpy           =     -36.8897911463 Ry

     File ./pw_run.bfgs deleted, as requested
Begin final coordinates
     new unit-cell volume =    532.92603 a.u.^3 (    78.97149 Ang^3 )
     density =      0.50510 g/cm^3

CELL_PARAMETERS (angstrom)
   2.465608258   0.000001405   0.000000000
  -1.232802912   2.135280089   0.000000000
   0.000000000   0.000000000  15.000000000

ATOMIC_POSITIONS (crystal)
C            -0.0000298314        0.0000298314        0.4450993676
C             0.3333598364        0.6666401926        0.4451006504
End final coordinates

     Writing output data file ./pw_run.save/

     Final scf calculation at the relaxed structure.
     The G-vectors are recalculated for the final unit cell
     Results may differ from those at the preceding step.

     Using Slab Decomposition

     bravais-lattice index     =            0
     lattice parameter (alat)  =       4.6487  a.u.
     unit-cell volume          =     532.9260 (a.u.)^3
     number of atoms/cell      =            2
     number of atomic types    =            1
     number of electrons       =         8.00
     number of Kohn-Sham states=            4
     kinetic-energy cutoff     =      40.0000  Ry
     charge density cutoff     =     306.0000  Ry
     scf convergence threshold =      1.0E-07
     mixing beta               =       0.7000
     number of iterations used =            8  plain     mixing
     press convergence thresh. =      5.0E-01
     Exchange-correlation= SLA  PW   PBX  PBC
                           (   1   4   3   4   0   0   0)

     celldm(1)=   4.648726  celldm(2)=   0.000000  celldm(3)=   0.000000
     celldm(4)=   0.000000  celldm(5)=   0.000000  celldm(6)=   0.000000

     crystal axes: (cart. coord. in units of alat)
               a(1) = (   1.002280   0.000001   0.000000 )
               a(2) = (  -0.501139   0.868000   0.000000 )
               a(3) = (   0.000000   0.000000   6.097561 )

     reciprocal axes: (cart. coord. in units 2 pi/alat)
               b(1) = (  0.997725  0.576036  0.000000 )
               b(2) = ( -0.000001  1.152073  0.000000 )
               b(3) = (  0.000000  0.000000  0.164000 )

     PseudoPot. # 1 for C  read from file:
     ./C_pbe_paw.UPF
     MD5 check sum: 141bb66bc2884774a16346b0c33000d4
     Pseudo is Projector augmented-wave + core cor, Zval =  4.0
     Generated using &quot;atomic&quot; code by A. Dal Corso  v.6.4
     Shape of augmentation charge: PSQ
     Using radial grid of 1073 points,  4 beta functions with:
                l(1) =   0
                l(2) =   0
                l(3) =   1
                l(4) =   1
     Q(r) pseudized with 0 coefficients

     atomic species   valence    mass     pseudopotential
        C              4.00    12.01070     C ( 1.00)

      2 Sym. Ops. (no inversion) found

   Cartesian axes

     site n.     atom                  positions (alat units)
         1           C   tau(   1) = (  -0.0000448   0.0000259   2.7140205  )
         2           C   tau(   2) = (   0.0000402   0.5786439   2.7140283  )

     number of k points=     9
                       cart. coord. in units 2pi/alat
        k(    1) = (   0.0000000   0.0000000   0.0000000), wk =   0.0800000
        k(    2) = (  -0.0000001   0.2304147   0.0000000), wk =   0.3200000
        k(    3) = (  -0.0000003   0.4608293   0.0000000), wk =   0.3200000
        k(    4) = (   0.1995449   0.3456219   0.0000000), wk =   0.1600000
        k(    5) = (   0.1995448   0.5760365   0.0000000), wk =   0.3200000
        k(    6) = (  -0.1995451   0.1152074   0.0000000), wk =   0.1600000
        k(    7) = (  -0.3990903   0.2304149   0.0000000), wk =   0.1600000
        k(    8) = (  -0.1995453   0.3456221   0.0000000), wk =   0.3200000
        k(    9) = (  -0.3990904   0.4608296   0.0000000), wk =   0.1600000

     Check: negative core charge=   -0.000004

     Initial potential from superposition of free atoms

     starting charge    7.99992, renormalised to    8.00000

     negative rho (up, down):  2.260E-05 0.000E+00
     Starting wfcs are    8 randomized atomic wfcs
     Checking if some PAW data can be deallocated...

     Self-consistent Calculation

[...]

     total energy              =     -36.88982958 Ry
     estimated scf accuracy    <       0.00000444 Ry

     iteration #  5     ecut=    40.00 Ry     beta= 0.70
     Davidson diagonalization with overlap
     ethr =  5.55E-08,  avg # of iterations =  3.0

[...]

     End of self-consistent calculation

[...]

          k = 0.1995 0.5760 0.0000 (  2254 PWs)   bands (ev):

[...]

          k =-0.3991 0.4608 0.0000 (  2254 PWs)   bands (ev):

   -15.3898 -14.4005 -10.5645  -3.2100

     highest occupied level (ev):    -3.2075

!    total energy              =     -36.88983220 Ry

     total all-electron energy =      -152.418027 Ry
     estimated scf accuracy    <       0.00000005 Ry

     The total energy is the sum of the following terms:
     one-electron contribution =    -156.83594232 Ry
     hartree contribution      =      80.04323868 Ry
     xc contribution           =      -9.27557356 Ry
     ewald contribution        =      61.51720636 Ry
     DFT-D3 Dispersion         =      -0.00521691 Ry
     one-center paw contrib.   =     -12.33354445 Ry

     convergence has been achieved in   5 iterations

     negative rho (up, down):  3.922E-05 0.000E+00

     Forces acting on atoms (cartesian axes, Ry/au):

     atom    1 type  1   force =     0.00043823   -0.00025301   -0.00000408
     atom    2 type  1   force =    -0.00043823    0.00025301    0.00000408

     Total force =     0.000716     Total SCF correction =     0.000019

     Computing stress (Cartesian axis) and pressure

     negative rho (up, down):  3.922E-05 0.000E+00
          total   stress  (Ry/bohr**3)                   (kbar)     P=       -0.38
   0.00000254   0.00000029  -0.00000003            0.37        0.04       -0.00
   0.00000029   0.00000287   0.00000002            0.04        0.42        0.00
  -0.00000003   0.00000002  -0.00001314           -0.00        0.00       -1.93

     Writing output data file ./pw_run.save/

     General routines

     Parallel routines

   This run was terminated on:  11: 1:25  19Sep2021

   JOB DONE.