 vasp.5.4.4.18Apr17-6-g9f103f2a35 (build Mar 19 2019 20:38:45) complex

 executed on             LinuxIFC date 2021.09.28  17:05:49

 INCAR:
 POTCAR:    PAW_PBE Mo_sv 02Feb2006
 POTCAR:    PAW_PBE S 06Sep2000

 POTCAR:    PAW_PBE Mo_sv 02Feb2006
   VRHFIN =Mo: 4p5s4d

   TITEL  = PAW_PBE Mo_sv 02Feb2006
   POMASS =   95.940; ZVAL   =   14.000    mass and valenz
   ENMAX  =  242.676; ENMIN  =  182.007 eV

 POTCAR:    PAW_PBE S 06Sep2000
   VRHFIN =S : s2p4

   TITEL  = PAW_PBE S 06Sep2000
   POMASS =   32.066; ZVAL   =    6.000    mass and valenz
   ENMAX  =  258.689; ENMIN  =  194.016 eV

 Optimization of the real space projectors (new method)

 maximal supplied QI-value         = 15.12
 optimisation between [QCUT,QGAM] = [ 11.34, 22.83] = [ 36.00,145.93] Ry
 Optimized for a Real-space Cutoff    1.52 Angstroem

   l    n(q)    QCUT    max X(q) W(low)/X(q) W(high)/X(q)  e(spline)
   0     10    11.338     3.559    0.29E-04    0.28E-04    0.16E-06
   0     10    11.338    20.730    0.48E-04    0.29E-04    0.19E-06
   1     10    11.338     3.279    0.19E-05    0.50E-05    0.27E-07
   1     10    11.338     4.693    0.70E-04    0.92E-04    0.29E-06
   2      9    11.338    67.616    0.24E-03    0.32E-03    0.71E-06
   2      9    11.338    62.420    0.24E-03    0.32E-03    0.71E-06
 Optimization of the real space projectors (new method)

 maximal supplied QI-value         = 19.84
 optimisation between [QCUT,QGAM] = [ 11.31, 22.82] = [ 35.82,145.81] Ry
 Optimized for a Real-space Cutoff    1.20 Angstroem

   l    n(q)    QCUT    max X(q) W(low)/X(q) W(high)/X(q)  e(spline)
   0      8    11.310   187.594    0.16E-03    0.19E-03    0.53E-07
   0      8    11.310   164.243    0.16E-03    0.19E-03    0.53E-07
   1      8    11.310    67.533    0.18E-03    0.19E-03    0.92E-07
   1      8    11.310    50.729    0.18E-03    0.19E-03    0.90E-07
  PAW_PBE Mo_sv 02Feb2006               :
  PAW_PBE S 06Sep2000                   :

 POSCAR: MoS2-3.16
  positions in direct lattice
  velocities in cartesian coordinates
 exchange correlation table for  LEXCH =        8
   RHO(1)=    0.500       N(1)  =     2000
   RHO(2)=  100.500       N(2)  =     4000

 ion  position               nearest neighbor table
   1  0.332  0.666  0.375-   3 2.40   3 2.40   3 2.40   2 2.40   2 2.40   2 2.40
   2  0.665  0.333  0.310-   1 2.40   1 2.40   1 2.40
   3  0.665  0.333  0.440-   1 2.40   1 2.40   1 2.40

IMPORTANT INFORMATION: All symmetrisations will be switched off!
NOSYMM: (Re-)initialisation of all symmetry stuff for point group C_1.

 KPOINTS: k-points for bandsture G-K-M-G
  interpolating k-points between supplied coordinates
  k-points in reciprocal lattice
Space group operators:
 irot       det(A)        alpha          n_x          n_y          n_z        tau_x        tau_y        tau_z
    1     1.000000     0.000000     1.000000     0.000000     0.000000     0.000000     0.000000     0.000000

 SYSTEM =  WS2
 POSCAR =  MoS2-3.16

 Startparameter for this run:
   NWRITE =      2    write-flag & timer
   PREC   = accura    normal or accurate (medium, high low for compatibility)
   ISTART =      1    job   : 0-new  1-cont  2-samecut
   ICHARG =     11    charge: 1-file 2-atom 10-const
   ISPIN  =      1    spin polarized calculation?
   LNONCOLLINEAR =      T non collinear calculations
   LSORBIT =      T    spin-orbit coupling
   INIWAV =      1    electr: 0-lowe 1-rand  2-diag
   LASPH  =      F    aspherical Exc in radial PAW
   METAGGA=      F    non-selfconsistent MetaGGA calc.

 Electronic Relaxation 1
   ENCUT  =  500.0 eV  36.75 Ry    6.06 a.u.   5.75  5.75 44.00*2*pi/ulx,y,z
   ENINI  =  500.0     initial cutoff
   ENAUG  =  446.0 eV  augmentation charge cutoff
   NELM   =    120;   NELMIN=  2; NELMDL=  0     # of ELM steps
   EDIFF  = 0.1E-04   stopping-criterion for ELM
   LREAL  =      T    real-space projection
   NLSPLINE    = F    spline interpolate recip. space projectors
   LCOMPAT=      F    compatible to vasp.4.4
   GGA_COMPAT  = T    GGA compatible to vasp.4.4-vasp.4.6
   LMAXPAW     = -100 max onsite density
   LMAXMIX     =    2 max onsite mixed and CHGCAR
   VOSKOWN=      0    Vosko Wilk Nusair interpolation
   ROPT   =   -0.00025  -0.00025
 Ionic relaxation
   EDIFFG = -.1E-02   stopping-criterion for IOM
   NSW    =      0    number of steps for IOM
   NBLOCK =      1;   KBLOCK =      1    inner block; outer block
   IBRION =     -1    ionic relax: 0-MD 1-quasi-New 2-CG
   NFREE  =      1    steps in history (QN), initial steepest desc. (CG)
   ISIF   =      2    stress and relaxation
   IWAVPR =     10    prediction:  0-non 1-charg 2-wave 3-comb
   ISYM   =      0    0-nonsym 1-usesym 2-fastsym
   LCORR  =      T    Harris-Foulkes like correction to forces

   POTIM  = 0.1000    time-step for ionic-motion
   TEIN   =    0.0    initial temperature
   TEBEG  =    0.0;   TEEND  =   0.0 temperature during run
   SMASS  =  -3.00    Nose mass-parameter (am)
   estimated Nose-frequenzy (Omega)   =  0.10E-29 period in steps =****** mass=  -0.227E-27a.u.
   SCALEE = 1.0000    scale energy and forces
   NPACO  =    256;   APACO  = 16.0  distance and # of slots for P.C.
   PSTRESS=    0.0 pullay stress

  Mass of Ions in am
   POMASS =  95.94 32.07
  Ionic Valenz
   ZVAL   =  14.00  6.00
  Atomic Wigner-Seitz radii
  virtual crystal weights
   VCA    =   1.00  1.00
   NELECT =      26.0000    total number of electrons
   NUPDOWN=      -1.0000    fix difference up-down

 DOS related values:
   EMIN   =  10.00;   EMAX   =-10.00  energy-range for DOS
   EFERMI =   0.00
   ISMEAR =     0;   SIGMA  =   0.05  broadening in eV -4-tet -1-fermi 0-gaus

 Electronic relaxation 2 (details)
   IALGO  =     38    algorithm
   LDIAG  =      T    sub-space diagonalisation (order eigenvalues)
   LSUBROT=      F    optimize rotation matrix (better conditioning)
   TURBO    =      0    0=normal 1=particle mesh
   IRESTART =      0    0=no restart 2=restart with 2 vectors
   NREBOOT  =      0    no. of reboots
   NMIN     =      0    reboot dimension
   EREF     =   0.00    reference energy to select bands
   IMIX   =      4    mixing-type and parameters
     AMIX     =   0.40;   BMIX     =  1.00
     AMIX_MAG =   1.60;   BMIX_MAG =  1.00
     AMIN     =   0.10
     WC   =   100.;   INIMIX=   1;  MIXPRE=   1;  MAXMIX= -45

 Intra band minimization:
   WEIMIN = 0.0000     energy-eigenvalue tresh-hold
   EBREAK =  0.52E-07  absolut break condition
   DEPER  =   0.30     relativ break condition

   TIME   =   0.40     timestep for ELM

  volume/ion in A,a.u.               =      69.29       467.58
  Fermi-wavevector in a.u.,A,eV,Ry     =   0.818725  1.547167  9.120138  0.670311
  Thomas-Fermi vector in A             =   1.929403

 Write flags
   LWAVE        =      T    write WAVECAR
   LDOWNSAMPLE  =      F    k-point downsampling of WAVECAR
   LCHARG       =      T    write CHGCAR
   LVTOT        =      F    write LOCPOT, total local potential
   LVHAR        =      F    write LOCPOT, Hartree potential only
   LELF         =      F    write electronic localiz. function (ELF)
   LORBIT       =     11    0 simple, 1 ext, 2 COOP (PROOUT), +10 PAW based schemes

 Dipole corrections
   LMONO  =      F    monopole corrections only (constant potential shift)
   LDIPOL =      F    correct potential (dipole corrections)
   IDIPOL =      0    1-x, 2-y, 3-z, 4-all directions
   EPSILON=  1.0000000 bulk dielectric constant

 Exchange correlation treatment:
   GGA     =    --    GGA type
   VOSKOWN=      0    Vosko Wilk Nusair interpolation
   LHFCALC =     F    Hartree Fock is set to
   LHFONE  =     F    Hartree Fock one center treatment
   AEXX    =    0.0000 exact exchange contribution

 Linear response parameters
   LEPSILON=     F    determine dielectric tensor
   LRPA    =     F    only Hartree local field effects (RPA)
   LNABLA  =     F    use nabla operator in PAW spheres
   LVEL    =     F    velocity operator in full k-point grid
   LINTERFAST=   F  fast interpolation
   KINTER  =     0    interpolate to denser k-point grid
   CSHIFT  =0.1000    complex shift for real part using Kramers Kronig
   OMEGAMAX=  -1.0    maximum frequency
   DEG_THRESHOLD= 0.2000000E-02 threshold for treating states as degnerate
   RTIME   =   -0.100 relaxation time in fs
  (WPLASMAI=    0.000 imaginary part of plasma frequency in eV, 0.658/RTIME)
   DFIELD  = 0.0000000 0.0000000 0.0000000 field for delta impulse in time

 Orbital magnetization related:
   ORBITALMAG=     F  switch on orbital magnetization
   LCHIMAG   =     F  perturbation theory with respect to B field
   DQ        =  0.001000  dq finite difference perturbation B field
   LLRAUG    =     F  two centre corrections for induced B field

 Static calculation
 charge density and potential remain constant during run
 non collinear spin polarized calculation
 Variant of blocked Davidson
 Davidson routine will perform the subspace rotation
 perform sub-space diagonalisation
    after iterative eigenvector-optimisation
 no mixing
 using additional bands           35
 real space projection scheme for non local part
 use partial core corrections
 calculate Harris-corrections to forces
   (improved forces if not selfconsistent)
 use gradient corrections
 WARNING: stress and forces are not correct
  (second derivative of E(xc) not defined)
 use of overlap-Matrix (Vanderbilt PP)
 Gauss-broadening in eV      SIGMA  =   0.05

  energy-cutoff  :      500.00
  volume of cell :      207.87
      direct lattice vectors                 reciprocal lattice vectors
     3.153803002  0.000001722  0.000005255     0.317077409  0.183064302 -0.000001042
    -1.576895282  2.731269097  0.000005016    -0.000000200  0.366130048 -0.000001025
     0.000040249  0.000067590 24.131478925    -0.000000069 -0.000000116  0.041439648

  length of vectors
     3.153803002  3.153796063 24.131478925     0.366129242  0.366130048  0.041439648

 old parameters found on file WAVECAR:
  energy-cutoff  :      500.00
  volume of cell :      207.87
      direct lattice vectors                 reciprocal lattice vectors
     3.153803002  0.000001722  0.000005255     0.317077409  0.183064302 -0.000001042
    -1.576895282  2.731269097  0.000005016    -0.000000200  0.366130048 -0.000001025
     0.000040249  0.000067590 24.131478925    -0.000000069 -0.000000116  0.041439648

  length of vectors

 k-points in units of 2pi/SCALE and weight: k-points for bandsture G-K-M-G
   0.00000000  0.00000000  0.00000000       0.008
   0.00352308  0.00610215 -0.00000002       0.008
   0.00704615  0.01220431 -0.00000005       0.008
   0.01056923  0.01830646 -0.00000007       0.008
   0.01409231  0.02440861 -0.00000009       0.008
   0.01761538  0.03051077 -0.00000011       0.008
   0.02113846  0.03661292 -0.00000014       0.008
   0.02466154  0.04271507 -0.00000016       0.008
   0.02818461  0.04881723 -0.00000018       0.008
   0.03170769  0.05491938 -0.00000021       0.008
   0.03523077  0.06102153 -0.00000023       0.008
   0.03875384  0.06712369 -0.00000025       0.008
   0.04227692  0.07322584 -0.00000028       0.008
   0.04580000  0.07932799 -0.00000030       0.008
   0.04932307  0.08543015 -0.00000032       0.008
[...]
 k-point 52 :   0.1111 0.4444 0.0000  plane waves:   10572
 k-point 53 :   0.1000 0.4500 0.0000  plane waves:   10560
 k-point 54 :   0.0889 0.4556 0.0000  plane waves:   10560
 k-point 55 :   0.0778 0.4611 0.0000  plane waves:   10584
 k-point 56 :   0.0667 0.4667 0.0000  plane waves:   10600
 k-point 57 :   0.0556 0.4722 0.0000  plane waves:   10616
 k-point 58 :   0.0444 0.4778 0.0000  plane waves:   10612
 k-point 59 :   0.0333 0.4833 0.0000  plane waves:   10612
 k-point 60 :   0.0222 0.4889 0.0000  plane waves:   10620
[...]
 k-point 85 :  -0.2444 0.6222 0.0000  plane waves:   10520
 k-point 86 :  -0.2556 0.6278 0.0000  plane waves:   10516
 k-point 87 :  -0.2667 0.6333 0.0000  plane waves:   10472
 k-point 88 :  -0.2778 0.6389 0.0000  plane waves:   10468
 k-point 89 :  -0.2889 0.6444 0.0000  plane waves:   10480
 k-point 90 :  -0.3000 0.6500 0.0000  plane waves:   10488
 k-point 91 :  -0.3111 0.6556 0.0000  plane waves:   10472
 k-point 92 :  -0.3222 0.6611 0.0000  plane waves:   10488
 k-point 93 :  -0.3333 0.6667 0.0000  plane waves:   10464
 k-point 94 :  -0.3333 0.6667 0.0000  plane waves:   10464
 k-point 95 :  -0.3222 0.6444 0.0000  plane waves:   10484
 k-point 96 :  -0.3111 0.6222 0.0000  plane waves:   10476
 k-point 97 :  -0.3000 0.6000 0.0000  plane waves:   10492
 k-point 98 :  -0.2889 0.5778 0.0000  plane waves:   10500
 k-point 99 :  -0.2778 0.5556 0.0000  plane waves:   10512
 k-point ** :  -0.2667 0.5333 0.0000  plane waves:   10492
 k-point ** :  -0.2556 0.5111 0.0000  plane waves:   10480
 k-point ** :  -0.2444 0.4889 0.0000  plane waves:   10508
 k-point ** :  -0.2333 0.4667 0.0000  plane waves:   10524
 k-point ** :  -0.2222 0.4444 0.0000  plane waves:   10532
 k-point ** :  -0.2111 0.4222 0.0000  plane waves:   10540
 k-point ** :  -0.2000 0.4000 0.0000  plane waves:   10520
 k-point ** :  -0.1889 0.3778 0.0000  plane waves:   10556
 k-point ** :  -0.1778 0.3556 0.0000  plane waves:   10548
 k-point ** :  -0.1667 0.3333 0.0000  plane waves:   10548
 k-point ** :  -0.1556 0.3111 0.0000  plane waves:   10556
 k-point ** :  -0.1444 0.2889 0.0000  plane waves:   10552
 k-point ** :  -0.1333 0.2667 0.0000  plane waves:   10540
 k-point ** :  -0.1222 0.2444 0.0000  plane waves:   10534
 k-point ** :  -0.1111 0.2222 0.0000  plane waves:   10510
 k-point ** :  -0.1000 0.2000 0.0000  plane waves:   10538
 k-point ** :  -0.0889 0.1778 0.0000  plane waves:   10518
 k-point ** :  -0.0778 0.1556 0.0000  plane waves:   10550
 k-point ** :  -0.0667 0.1333 0.0000  plane waves:   10550
 k-point ** :  -0.0556 0.1111 0.0000  plane waves:   10534
 k-point ** :  -0.0444 0.0889 0.0000  plane waves:   10518
 k-point ** :  -0.0333 0.0667 0.0000  plane waves:   10542
 k-point ** :  -0.0222 0.0444 0.0000  plane waves:   10546
 k-point ** :  -0.0111 0.0222 0.0000  plane waves:   10542
 k-point ** :   0.0000-0.0000 0.0000  plane waves:   10566

 maximum and minimum number of plane-waves per node :     10624    10464

 maximum number of plane-waves:     10624
 maximum index in each direction:
   IXMAX=    6   IYMAX=    5   IZMAX=   43
   IXMIN=   -6   IYMIN=   -6   IZMIN=  -43

 serial   3D FFT for wavefunctions
 parallel 3D FFT for charge:
    minimum data exchange during FFTs selected (reduces bandwidth)

 initial charge density was supplied:
 number of electron      26.0000001 magnetization       0.0001704      0.0001703      0.0001705
 keeping initial charge density in first step

 Maximum index for non-local projection operator         7078
 Maximum index for augmentation-charges          923 (set IRDMAX)

 First call to EWALD:  gamma=   0.299
 Maximum number of real-space cells 5x 5x 1
 Maximum number of reciprocal cells 2x 2x10

--------------------------------------- Iteration      1(   1)  ---------------------------------------

 eigenvalue-minimisations  : 17328
 total energy-change (2. order) : 0.8922241E+01  (-0.2401951E+03)
 number of electron      26.0000001 magnetization       0.0001704      0.0001703      0.0001705
 augmentation part       26.0000001 magnetization       0.0001704      0.0001703      0.0001705

 Free energy of the ion-electron system (eV)
  alpha Z        PSCENC =        22.75824259
  Ewald energy   TEWEN  =      8026.98317400
  -Hartree energ DENC   =    -10109.83245795
  -exchange      EXHF   =         0.00000000
  -V(xc)+E(xc)   XCENC  =        90.97149304
  PAW double counting   =      2974.11392139    -2953.12615341
  entropy T*S    EENTRO =        -0.00016249
  eigenvalues    EBANDS =      -458.86713097
  atomic energy  EATOM  =      2415.92131437
  Solvation  Ediel_sol  =         0.00000000
  free energy    TOTEN  =         8.92224058 eV

  energy without entropy =        8.92240307  energy(sigma->0) =        8.92232182

[...]

 eigenvalue-minimisations  : 13560
 total energy-change (2. order) :-0.3093251E+02  (-0.2990011E+02)
 number of electron      26.0000001 magnetization       0.0001704      0.0001703      0.0001705
 augmentation part       26.0000001 magnetization       0.0001704      0.0001703      0.0001705

[...]

 total charge

# of ion       s       p       d       tot
    1        2.268   6.236   3.895  12.398
    2        1.376   2.348   0.000   3.724
    3        1.376   2.348   0.000   3.724
tot          5.020  10.931   3.895  19.846

 magnetization (x)

[...]

 magnetization (y)

[...]

 magnetization (z)

[...]

--------------------------------------- Iteration      1(   6)  ---------------------------------------

 eigenvalue-minimisations  : 16248
 total energy-change (2. order) :-0.4797253E-05  (-0.4797442E-05)
 number of electron      26.0000001 magnetization       0.0001704      0.0001703      0.0001705
 augmentation part       26.0000001 magnetization       0.0001704      0.0001703      0.0001705

 Free energy of the ion-electron system (eV)
  alpha Z        PSCENC =        22.75824259
  Ewald energy   TEWEN  =      8026.98317400
  -Hartree energ DENC   =    -10109.83245795
  -exchange      EXHF   =         0.00000000
  -V(xc)+E(xc)   XCENC  =        90.97149304
  PAW double counting   =      2974.11392139    -2953.12615341
  entropy T*S    EENTRO =        -0.00000000
  eigenvalues    EBANDS =      -490.28772342
  atomic energy  EATOM  =      2415.92131437
  Solvation  Ediel_sol  =         0.00000000
  free energy    TOTEN  =       -22.49818938 eV

  energy without entropy =      -22.49818938  energy(sigma->0) =      -22.49818938

 average (electrostatic) potential at core
  the test charge radii are     1.0818  0.9698
  (the norm of the test charge is              1.0000)
       1 -84.1629       2 -93.9013       3 -93.9013

 E-fermi :  -2.3180     XC(G=0):  -3.2018     alpha+bet : -3.4723

 k-point     1 :       0.0000    0.0000    0.0000
  band No.  band energies     occupation
      1     -63.4274      1.00000
      2     -63.4274      1.00000
      3     -39.0705      1.00000
      4     -39.0705      1.00000
      5     -36.7147      1.00000
      6     -36.7146      1.00000
      7     -36.5469      1.00000
      8     -36.5469      1.00000
      9     -16.7723      1.00000
     10     -16.7723      1.00000
     11     -15.4660      1.00000
     12     -15.4659      1.00000
     13      -8.2992      1.00000
     14      -8.2992      1.00000
     15      -5.2111      1.00000
     16      -5.2110      1.00000
     17      -5.1452      1.00000
     18      -5.1452      1.00000
     19      -4.4664      1.00000
     20      -4.4664      1.00000
     21      -4.0948      1.00000
     22      -4.0947      1.00000
     23      -4.0094      1.00000
     24      -4.0094      1.00000
     25      -2.6843      1.00000
     26      -2.6843      1.00000
     27       0.1936      0.00000
     28       0.1936      0.00000
     29       0.2730      0.00000
     30       0.2730      0.00000
     31       0.4737      0.00000
     32       0.4737      0.00000
     33       0.4767      0.00000
     34       0.4767      0.00000
     35       2.7437      0.00000
     36       2.7958      0.00000
     37       2.8862      0.00000
     38       2.9440      0.00000
     39       3.3330      0.00000
     40       3.5743      0.00000
     41       3.8452      0.00000
     42       3.8827      0.00000
     43       4.1076      0.00000
     44       4.2583      0.00000
     45       4.7843      0.00000
     46       4.9768      0.00000
     47       5.8387      0.00000
     48       6.0113      0.00000

[...]

 k-point   124 :       0.0000   -0.0000    0.0000
  band No.  band energies     occupation
      1     -63.4274      1.00000
      2     -63.4274      1.00000
      3     -39.0705      1.00000
      4     -39.0705      1.00000
      5     -36.7147      1.00000
      6     -36.7146      1.00000
      7     -36.5469      1.00000
      8     -36.5469      1.00000
      9     -16.7723      1.00000
     10     -16.7723      1.00000
     11     -15.4660      1.00000
     12     -15.4659      1.00000
     13      -8.2992      1.00000
     14      -8.2992      1.00000
     15      -5.2111      1.00000
     16      -5.2110      1.00000
     17      -5.1452      1.00000
     18      -5.1452      1.00000
     19      -4.4664      1.00000
     20      -4.4664      1.00000
     21      -4.0948      1.00000
     22      -4.0947      1.00000
     23      -4.0094      1.00000
     24      -4.0094      1.00000
     25      -2.6843      1.00000
     26      -2.6843      1.00000
     27       0.1936      0.00000
     28       0.1936      0.00000
     29       0.2730      0.00000
     30       0.2730      0.00000
     31       0.4737      0.00000
     32       0.4737      0.00000
     33       0.4767      0.00000
     34       0.4767      0.00000
     35       2.7437      0.00000
     36       2.7958      0.00000
     37       2.8862      0.00000
     38       2.9440      0.00000
     39       3.3330      0.00000
     40       3.5743      0.00000
     41       3.8452      0.00000
     42       3.8827      0.00000
     43       4.1076      0.00000
     44       4.2583      0.00000
     45       4.7843      0.00000
     46       4.9768      0.00000
     47       5.8387      0.00000
     48       6.0114      0.00000

 soft charge-density along one line, spin component           1
         0         1         2         3         4         5         6         7         8         9
 total charge-density along one line

[...]

 soft charge-density along one line, spin component           4
         0         1         2         3         4         5         6         7         8         9
 total charge-density along one line

------------------------ aborting loop because EDIFF is reached ----------------------------------------

[...]

         DFTD3 V3.0 Rev 1
 IVDW         = 12
 DF pbe
 parameters
 VDW_S6       =    1.0000
 VDW_S8       =    0.7875
 VDW_A1       =    0.4289
 VDW_A2       =    4.4407
 k1-k3        =   16.0000    1.3333   -4.0000
 VDW_RADIUS   =   50.2022 A
 VDW_CNRADIUS =   21.1671 A
 Edisp (eV)   -0.95808

 E6    (eV) :    -0.5435
 E8    (eV) :    -0.4146
 % E8        : 43.27

  FORCE on cell =-STRESS in cart. coord.  units (eV):
  Direction    XX          YY          ZZ          XY          YZ          ZX
  Alpha Z    22.75824    22.75824    22.75824
  Ewald    9442.30758  9442.30436-10857.62891     0.00149     0.05728     0.03412
  Hartree  9854.91396  9839.37931 -9607.85793     0.00039     0.05414     0.03256
  E(xc)    -109.82782  -109.73180  -110.00958     0.00000     0.00000     0.00000
  Local  -19758.69020-19714.28231 20014.30939    -0.00197    -0.11025    -0.06675
  n-local   122.64655   116.13179   126.62803    -0.00079    -0.00003    -0.00017
  augment    -0.21756    -0.87741    -3.11275    -0.00002    -0.00011     0.00001
  Kinetic   421.76826   405.69675   416.11840    -0.00038    -0.00004     0.00002
  Fock        0.00000     0.00000     0.00000     0.00000     0.00000     0.00000
  vdW        -0.99748    -0.99748    -0.32966    -0.00000    -0.00000    -0.00000
  Total      -5.33846     0.38147     0.87524    -0.00126     0.00099    -0.00020
  in kB     -41.14753     2.94024     6.74610    -0.00974     0.00762    -0.00157

 VOLUME and BASIS-vectors are now :
  energy-cutoff  :      500.00
  volume of cell :      207.87
      direct lattice vectors                 reciprocal lattice vectors
     3.153803002  0.000001722  0.000005255     0.317077409  0.183064302 -0.000001042
    -1.576895282  2.731269097  0.000005016    -0.000000200  0.366130048 -0.000001025
     0.000040249  0.000067590 24.131478925    -0.000000069 -0.000000116  0.041439648

  length of vectors
     3.153803002  3.153796063 24.131478925     0.366129242  0.366130048  0.041439648

 FORCES acting on ions
    electron-ion (+dipol)            ewald-force                    non-local-force                 convergence-correction
   -.199E-02 -.973E+00 -.197E-01   0.340E-03 0.609E-03 0.120E-01   -.382E-03 0.129E+00 -.252E-02   0.240E-02 0.418E+00 0.678E-02
   -.166E-02 0.126E+01 0.975E+03   0.138E-02 0.230E-02 -.985E+03   -.148E-02 -.668E-01 0.570E+01   -.120E-03 -.894E+00 0.410E+01
   0.695E-03 0.127E+01 -.975E+03   -.172E-02 -.291E-02 0.985E+03   -.263E-03 -.673E-01 -.570E+01   0.176E-03 -.894E+00 -.409E+01
   -.296E-02 0.156E+01 -.866E-02   -.349E-14 -.295E-14 0.114E-12   -.213E-02 -.534E-02 -.555E-03   0.246E-02 -.137E+01 0.899E-02

 POSITION                                       TOTAL-FORCE (eV/Angst)
     -0.00294      1.81944      9.04077         0.001243     -0.485859     -0.003362
      1.57398      0.90904      7.47397        -0.001011      0.242900     -0.954151
      1.57397      0.90902     10.60737        -0.000233      0.242959      0.957513
    total drift:                               -0.002635      0.180897     -0.000218

  FREE ENERGIE OF THE ION-ELECTRON SYSTEM (eV)
  free  energy   TOTEN  =       -23.45626837 eV

  energy  without entropy=      -23.45626837  energy(sigma->0) =      -23.45626837

 writing wavefunctions

 Spin-Orbit-Coupling matrix elements

 Ion:    1  E_soc:     -0.1915840
 l=   1
     0.0000000    -0.0294930    -0.0296556
    -0.0294930     0.0000000    -0.0293392
    -0.0296556    -0.0293392     0.0000000
 l=   2
     0.0000000    -0.0004247     0.0000000    -0.0005104    -0.0021527
    -0.0004247     0.0000000    -0.0013774    -0.0003708    -0.0003713
     0.0000000    -0.0013774     0.0000000    -0.0014923     0.0000000
    -0.0005104    -0.0003708    -0.0014923     0.0000000    -0.0006045
    -0.0021527    -0.0003713     0.0000000    -0.0006045     0.0000000
 l=   3
     0.0000000     0.0000000     0.0000000     0.0000000     0.0000000     0.0000000     0.0000000
     0.0000000     0.0000000     0.0000000     0.0000000     0.0000000     0.0000000     0.0000000
     0.0000000     0.0000000     0.0000000     0.0000000     0.0000000     0.0000000     0.0000000
     0.0000000     0.0000000     0.0000000     0.0000000     0.0000000     0.0000000     0.0000000
     0.0000000     0.0000000     0.0000000     0.0000000     0.0000000     0.0000000     0.0000000
     0.0000000     0.0000000     0.0000000     0.0000000     0.0000000     0.0000000     0.0000000
     0.0000000     0.0000000     0.0000000     0.0000000     0.0000000     0.0000000     0.0000000

[...]

 Ion:    3  E_soc:     -0.0021164
 l=   1
     0.0000000    -0.0003957    -0.0003719
    -0.0003957     0.0000000    -0.0002906
    -0.0003719    -0.0002906     0.0000000
 l=   2
     0.0000000     0.0000000     0.0000000     0.0000000     0.0000000
     0.0000000     0.0000000     0.0000000     0.0000000     0.0000000
     0.0000000     0.0000000     0.0000000     0.0000000     0.0000000
     0.0000000     0.0000000     0.0000000     0.0000000     0.0000000
     0.0000000     0.0000000     0.0000000     0.0000000     0.0000000
 l=   3
     0.0000000     0.0000000     0.0000000     0.0000000     0.0000000     0.0000000     0.0000000
     0.0000000     0.0000000     0.0000000     0.0000000     0.0000000     0.0000000     0.0000000
     0.0000000     0.0000000     0.0000000     0.0000000     0.0000000     0.0000000     0.0000000
     0.0000000     0.0000000     0.0000000     0.0000000     0.0000000     0.0000000     0.0000000
     0.0000000     0.0000000     0.0000000     0.0000000     0.0000000     0.0000000     0.0000000
     0.0000000     0.0000000     0.0000000     0.0000000     0.0000000     0.0000000     0.0000000
     0.0000000     0.0000000     0.0000000     0.0000000     0.0000000     0.0000000     0.0000000

 total charge

[...]

 magnetization (x)

[...]

 magnetization (y)

[...]

 magnetization (z)

# of ion       s       p       d       tot
    1        0.000   0.000   0.000   0.000
    2        0.000  -0.000   0.000  -0.000
    3       -0.000  -0.000   0.000  -0.000
tot         -0.000  -0.000   0.000  -0.000