 vasp.5.4.4.18Apr17-6-g9f103f2a35 (build Nov 25 2019 16:06:44) complex

 executed on             LinuxIFC date 2021.05.14  20:16:32

 INCAR:
 POTCAR:    PAW_PBE W 08Apr2002
 POTCAR:    PAW_PBE Mo 08Apr2002
 POTCAR:    PAW_PBE S 06Sep2000

 POTCAR:    PAW_PBE W 08Apr2002
   VRHFIN =W : 6s5d

   TITEL  = PAW_PBE W 08Apr2002
   POMASS =  183.850; ZVAL   =    6.000    mass and valenz
   ENMAX  =  223.057; ENMIN  =  167.293 eV

 POTCAR:    PAW_PBE Mo 08Apr2002
   VRHFIN =Mo: 4p5s4d

   TITEL  = PAW_PBE Mo 08Apr2002
   POMASS =   95.940; ZVAL   =    6.000    mass and valenz
   ENMAX  =  224.584; ENMIN  =  168.438 eV

 POTCAR:    PAW_PBE S 06Sep2000
   VRHFIN =S : s2p4

   TITEL  = PAW_PBE S 06Sep2000
   POMASS =   32.066; ZVAL   =    6.000    mass and valenz
   ENMAX  =  258.689; ENMIN  =  194.016 eV

  PAW_PBE W 08Apr2002                   :
  PAW_PBE Mo 08Apr2002                  :
  PAW_PBE S 06Sep2000                   :

 POSCAR: 0-3r
  positions in direct lattice
  velocities in cartesian coordinates
 exchange correlation table for  LEXCH =        8
   RHO(1)=    0.500       N(1)  =     2000
   RHO(2)=  100.500       N(2)  =     4000

 ion  position               nearest neighbor table
   1  0.332  0.666  0.292-   4 2.41   4 2.41   4 2.41   3 2.41   3 2.41   3 2.41
   2  0.998  0.999  0.542-   6 2.40   6 2.40   6 2.40   5 2.40   5 2.40   5 2.40
   3  0.665  0.333  0.227-   1 2.41   1 2.41   1 2.41
   4  0.665  0.333  0.357-   1 2.41   1 2.41   1 2.41
   5  0.331  0.666  0.606-   2 2.40   2 2.40   2 2.40
   6  0.331  0.666  0.477-   2 2.40   2 2.40   2 2.40

IMPORTANT INFORMATION: All symmetrisations will be switched off!
NOSYMM: (Re-)initialisation of all symmetry stuff for point group C_1.

 KPOINTS: Automatically generated mesh
  k-points in reciprocal lattice
Space group operators:
 irot       det(A)        alpha          n_x          n_y          n_z        tau_x        tau_y        tau_z
    1     1.000000     0.000000     1.000000     0.000000     0.000000     0.000000     0.000000     0.000000

 Subroutine IBZKPT_HF returns following result:

 Found    163 k-points in 1st BZ
 the following    163 k-points will be used (e.g. in the exchange kernel)
 Following reciprocal coordinates:   # in IRBZ
  0.000000  0.000000  0.000000    0.01562500   1 t-inv F
  0.125000  0.000000  0.000000    0.01562500   2 t-inv F
  0.250000  0.000000  0.000000    0.01562500   3 t-inv F
  0.375000  0.000000  0.000000    0.01562500   4 t-inv F
  0.500000  0.000000  0.000000    0.01562500   5 t-inv F
  0.000000  0.125000  0.000000    0.01562500   6 t-inv F
  0.125000  0.125000  0.000000    0.01562500   7 t-inv F
  0.250000  0.125000  0.000000    0.01562500   8 t-inv F
  0.375000  0.125000  0.000000    0.01562500   9 t-inv F
  0.500000  0.125000  0.000000    0.01562500  10 t-inv F
 -0.375000  0.125000  0.000000    0.01562500  11 t-inv F
 -0.250000  0.125000  0.000000    0.01562500  12 t-inv F
 -0.125000  0.125000  0.000000    0.01562500  13 t-inv F
  0.000000  0.250000  0.000000    0.01562500  14 t-inv F
  0.125000  0.250000  0.000000    0.01562500  15 t-inv F
  0.250000  0.250000  0.000000    0.01562500  16 t-inv F
  0.375000  0.250000  0.000000    0.01562500  17 t-inv F
  0.500000  0.250000  0.000000    0.01562500  18 t-inv F
 -0.375000  0.250000  0.000000    0.01562500  19 t-inv F
 -0.250000  0.250000  0.000000    0.01562500  20 t-inv F
 -0.125000  0.250000  0.000000    0.01562500  21 t-inv F
  0.000000  0.375000  0.000000    0.01562500  22 t-inv F
  0.125000  0.375000  0.000000    0.01562500  23 t-inv F
  0.250000  0.375000  0.000000    0.01562500  24 t-inv F
  0.375000  0.375000  0.000000    0.01562500  25 t-inv F
  0.500000  0.375000  0.000000    0.01562500  26 t-inv F
 -0.375000  0.375000  0.000000    0.01562500  27 t-inv F
 -0.250000  0.375000  0.000000    0.01562500  28 t-inv F
 -0.125000  0.375000  0.000000    0.01562500  29 t-inv F
  0.000000  0.500000  0.000000    0.01562500  30 t-inv F
  0.125000  0.500000  0.000000    0.01562500  31 t-inv F
  0.250000  0.500000  0.000000    0.01562500  32 t-inv F
  0.375000  0.500000  0.000000    0.01562500  33 t-inv F
  0.500000  0.500000  0.000000    0.01562500  34 t-inv F
  0.000000  0.000000  0.000000    0.00000000  35 t-inv F
  0.000000  0.015625  0.000000    0.00000000  36 t-inv F
  0.000000  0.031250  0.000000    0.00000000  37 t-inv F
  0.000000  0.046875  0.000000    0.00000000  38 t-inv F
  0.000000  0.062500  0.000000    0.00000000  39 t-inv F
  0.000000  0.078125  0.000000    0.00000000  40 t-inv F
  0.000000  0.093750  0.000000    0.00000000  41 t-inv F
  0.000000  0.109375  0.000000    0.00000000  42 t-inv F
  0.000000  0.125000  0.000000    0.00000000  43 t-inv F
  0.000000  0.140625  0.000000    0.00000000  44 t-inv F
  0.000000  0.156250  0.000000    0.00000000  45 t-inv F
  0.000000  0.171875  0.000000    0.00000000  46 t-inv F
  0.000000  0.187500  0.000000    0.00000000  47 t-inv F
  0.000000  0.203125  0.000000    0.00000000  48 t-inv F
  0.000000  0.218750  0.000000    0.00000000  49 t-inv F
  0.000000  0.234375  0.000000    0.00000000  50 t-inv F
  0.000000  0.250000  0.000000    0.00000000  51 t-inv F
  0.000000  0.265625  0.000000    0.00000000  52 t-inv F
  0.000000  0.281250  0.000000    0.00000000  53 t-inv F
  0.000000  0.296875  0.000000    0.00000000  54 t-inv F
  0.000000  0.312500  0.000000    0.00000000  55 t-inv F
  0.000000  0.328125  0.000000    0.00000000  56 t-inv F
  0.000000  0.343750  0.000000    0.00000000  57 t-inv F
  0.000000  0.359375  0.000000    0.00000000  58 t-inv F
  0.000000  0.375000  0.000000    0.00000000  59 t-inv F
  0.000000  0.390625  0.000000    0.00000000  60 t-inv F
[...]
 -0.500000 -0.250000  0.000000    0.01562500  18 t-inv T
  0.375000 -0.250000  0.000000    0.01562500  19 t-inv T
  0.250000 -0.250000  0.000000    0.01562500  20 t-inv T
  0.125000 -0.250000  0.000000    0.01562500  21 t-inv T
  0.000000 -0.375000  0.000000    0.01562500  22 t-inv T
 -0.125000 -0.375000  0.000000    0.01562500  23 t-inv T
 -0.250000 -0.375000  0.000000    0.01562500  24 t-inv T
 -0.375000 -0.375000  0.000000    0.01562500  25 t-inv T
 -0.500000 -0.375000  0.000000    0.01562500  26 t-inv T
  0.375000 -0.375000  0.000000    0.01562500  27 t-inv T
  0.250000 -0.375000  0.000000    0.01562500  28 t-inv T
  0.125000 -0.375000  0.000000    0.01562500  29 t-inv T
 -0.125000 -0.500000  0.000000    0.01562500  31 t-inv T
 -0.250000 -0.500000  0.000000    0.01562500  32 t-inv T
 -0.375000 -0.500000  0.000000    0.01562500  33 t-inv T

 SYSTEM =  WS2
 POSCAR =  0-3r

 Startparameter for this run:
   NWRITE =      2    write-flag & timer
   PREC   = accura    normal or accurate (medium, high low for compatibility)
   ISTART =      1    job   : 0-new  1-cont  2-samecut
   ICHARG =     11    charge: 1-file 2-atom 10-const
   ISPIN  =      1    spin polarized calculation?
   LNONCOLLINEAR =      F non collinear calculations
   LSORBIT =      F    spin-orbit coupling
   INIWAV =      1    electr: 0-lowe 1-rand  2-diag
   LASPH  =      F    aspherical Exc in radial PAW
   METAGGA=      F    non-selfconsistent MetaGGA calc.

 Electronic Relaxation 1
   ENCUT  =  500.0 eV  36.75 Ry    6.06 a.u.   5.75  5.75 44.13*2*pi/ulx,y,z
   ENINI  =  500.0     initial cutoff
   ENAUG  =  373.4 eV  augmentation charge cutoff
   NELM   =    120;   NELMIN=  2; NELMDL=  0     # of ELM steps
   EDIFF  = 0.1E-05   stopping-criterion for ELM
   LREAL  =      F    real-space projection
   NLSPLINE    = F    spline interpolate recip. space projectors
   LCOMPAT=      F    compatible to vasp.4.4
   GGA_COMPAT  = T    GGA compatible to vasp.4.4-vasp.4.6
   LMAXPAW     = -100 max onsite density
   LMAXMIX     =    2 max onsite mixed and CHGCAR
   VOSKOWN=      0    Vosko Wilk Nusair interpolation
   ROPT   =    0.00000   0.00000   0.00000
 Ionic relaxation
   EDIFFG = -.1E-02   stopping-criterion for IOM
   NSW    =      0    number of steps for IOM
   NBLOCK =      1;   KBLOCK =      1    inner block; outer block
   IBRION =     -1    ionic relax: 0-MD 1-quasi-New 2-CG
   NFREE  =      1    steps in history (QN), initial steepest desc. (CG)
   ISIF   =      2    stress and relaxation
   IWAVPR =     10    prediction:  0-non 1-charg 2-wave 3-comb
   ISYM   =      0    0-nonsym 1-usesym 2-fastsym
   LCORR  =      T    Harris-Foulkes like correction to forces

   POTIM  = 0.1000    time-step for ionic-motion
   TEIN   =    0.0    initial temperature
   TEBEG  =    0.0;   TEEND  =   0.0 temperature during run
   SMASS  =  -3.00    Nose mass-parameter (am)
   estimated Nose-frequenzy (Omega)   =  0.10E-29 period in steps =****** mass=  -0.227E-27a.u.
   SCALEE = 1.0000    scale energy and forces
   NPACO  =    256;   APACO  = 16.0  distance and # of slots for P.C.
   PSTRESS=    0.0 pullay stress

  Mass of Ions in am
   POMASS = 183.85 95.94 32.07
  Ionic Valenz
   ZVAL   =   6.00  6.00  6.00
  Atomic Wigner-Seitz radii
  virtual crystal weights
   VCA    =   1.00  1.00  1.00
   NELECT =      36.0000    total number of electrons
   NUPDOWN=      -1.0000    fix difference up-down

 DOS related values:
   EMIN   =  10.00;   EMAX   =-10.00  energy-range for DOS
   EFERMI =   0.00
   ISMEAR =     0;   SIGMA  =   0.05  broadening in eV -4-tet -1-fermi 0-gaus

 Electronic relaxation 2 (details)
   IALGO  =     53    algorithm
   LDIAG  =      T    sub-space diagonalisation (order eigenvalues)
   LSUBROT=      F    optimize rotation matrix (better conditioning)
   TURBO    =      0    0=normal 1=particle mesh
   IRESTART =      0    0=no restart 2=restart with 2 vectors
   NREBOOT  =      0    no. of reboots
   NMIN     =      0    reboot dimension
   EREF     =   0.00    reference energy to select bands
   IMIX   =      4    mixing-type and parameters
     AMIX     =   0.40;   BMIX     =  1.00
     AMIX_MAG =   1.60;   BMIX_MAG =  1.00
     AMIN     =   0.10
     WC   =   100.;   INIMIX=   1;  MIXPRE=   1;  MAXMIX= -45

 Intra band minimization:
   WEIMIN = 0.0000     energy-eigenvalue tresh-hold
   EBREAK =  0.52E-08  absolut break condition
   DEPER  =   0.30     relativ break condition

   TIME   =   0.40     timestep for ELM

  volume/ion in A,a.u.               =      34.71       234.22
  Fermi-wavevector in a.u.,A,eV,Ry     =   0.911976  1.723384 11.315962  0.831700
  Thomas-Fermi vector in A             =   2.036318

 Write flags
   LWAVE        =      T    write WAVECAR
   LDOWNSAMPLE  =      F    k-point downsampling of WAVECAR
   LCHARG       =      T    write CHGCAR
   LVTOT        =      F    write LOCPOT, total local potential
   LVHAR        =      F    write LOCPOT, Hartree potential only
   LELF         =      F    write electronic localiz. function (ELF)
   LORBIT       =     11    0 simple, 1 ext, 2 COOP (PROOUT), +10 PAW based schemes

 Dipole corrections
   LMONO  =      F    monopole corrections only (constant potential shift)
   LDIPOL =      F    correct potential (dipole corrections)
   IDIPOL =      0    1-x, 2-y, 3-z, 4-all directions
   EPSILON=  1.0000000 bulk dielectric constant

 Exchange correlation treatment:
   GGA     =    --    GGA type
   VOSKOWN=      0    Vosko Wilk Nusair interpolation
[...]
 k-point 29 :  -0.1250 0.3750 0.0000  plane waves:    5286
 k-point 30 :   0.0000 0.5000 0.0000  plane waves:    5312
 k-point 31 :   0.1250 0.5000 0.0000  plane waves:    5291
 k-point 32 :   0.2500 0.5000 0.0000  plane waves:    5250
 k-point 33 :   0.3750 0.5000 0.0000  plane waves:    5291
 k-point 34 :   0.5000 0.5000 0.0000  plane waves:    5312
 k-point 35 :   0.0000 0.0000 0.0000  plane waves:    5285
 k-point 36 :   0.0000 0.0156 0.0000  plane waves:    5277
 k-point 37 :   0.0000 0.0312 0.0000  plane waves:    5266
 k-point 38 :   0.0000 0.0469 0.0000  plane waves:    5272
 k-point 39 :   0.0000 0.0625 0.0000  plane waves:    5286
 k-point 40 :   0.0000 0.0781 0.0000  plane waves:    5290
 k-point 41 :   0.0000 0.0938 0.0000  plane waves:    5288
 k-point 42 :   0.0000 0.1094 0.0000  plane waves:    5278
 k-point 43 :   0.0000 0.1250 0.0000  plane waves:    5290
 k-point 44 :   0.0000 0.1406 0.0000  plane waves:    5296
 k-point 45 :   0.0000 0.1562 0.0000  plane waves:    5296
 k-point 46 :   0.0000 0.1719 0.0000  plane waves:    5290
 k-point 47 :   0.0000 0.1875 0.0000  plane waves:    5296
 k-point 48 :   0.0000 0.2031 0.0000  plane waves:    5288
 k-point 49 :   0.0000 0.2188 0.0000  plane waves:    5278
 k-point 50 :   0.0000 0.2344 0.0000  plane waves:    5282
 k-point 51 :   0.0000 0.2500 0.0000  plane waves:    5276
 k-point 52 :   0.0000 0.2656 0.0000  plane waves:    5290
 k-point 53 :   0.0000 0.2812 0.0000  plane waves:    5296
 k-point 54 :   0.0000 0.2969 0.0000  plane waves:    5298
 k-point 55 :   0.0000 0.3125 0.0000  plane waves:    5296
 k-point 56 :   0.0000 0.3281 0.0000  plane waves:    5300
 k-point 57 :   0.0000 0.3438 0.0000  plane waves:    5304
 k-point 58 :   0.0000 0.3594 0.0000  plane waves:    5306
 k-point 59 :   0.0000 0.3750 0.0000  plane waves:    5312
 k-point 60 :   0.0000 0.3906 0.0000  plane waves:    5308
[...]
 k-point 85 :   0.1771 0.4115 0.0000  plane waves:    5290
 k-point 86 :   0.1875 0.4062 0.0000  plane waves:    5286
 k-point 87 :   0.1979 0.4010 0.0000  plane waves:    5286
 k-point 88 :   0.2083 0.3958 0.0000  plane waves:    5278
 k-point 89 :   0.2188 0.3906 0.0000  plane waves:    5270
 k-point 90 :   0.2292 0.3854 0.0000  plane waves:    5278
 k-point 91 :   0.2396 0.3802 0.0000  plane waves:    5270
 k-point 92 :   0.2500 0.3750 0.0000  plane waves:    5268
 k-point 93 :   0.2604 0.3698 0.0000  plane waves:    5260
 k-point 94 :   0.2708 0.3646 0.0000  plane waves:    5256
 k-point 95 :   0.2812 0.3594 0.0000  plane waves:    5248
 k-point 96 :   0.2917 0.3542 0.0000  plane waves:    5264
 k-point 97 :   0.3021 0.3490 0.0000  plane waves:    5268
 k-point 98 :   0.3125 0.3438 0.0000  plane waves:    5260
 k-point 99 :   0.3229 0.3385 0.0000  plane waves:    5272
 k-point ** :   0.3333 0.3333 0.0000  plane waves:    5250
 k-point ** :   0.3333 0.3333 0.0000  plane waves:    5250
 k-point ** :   0.3229 0.3229 0.0000  plane waves:    5262
 k-point ** :   0.3125 0.3125 0.0000  plane waves:    5262
 k-point ** :   0.3021 0.3021 0.0000  plane waves:    5254
 k-point ** :   0.2917 0.2917 0.0000  plane waves:    5250
 k-point ** :   0.2812 0.2812 0.0000  plane waves:    5260
 k-point ** :   0.2708 0.2708 0.0000  plane waves:    5250
 k-point ** :   0.2604 0.2604 0.0000  plane waves:    5242
 k-point ** :   0.2500 0.2500 0.0000  plane waves:    5250
 k-point ** :   0.2396 0.2396 0.0000  plane waves:    5260
 k-point ** :   0.2292 0.2292 0.0000  plane waves:    5274
 k-point ** :   0.2188 0.2188 0.0000  plane waves:    5284
 k-point ** :   0.2083 0.2083 0.0000  plane waves:    5294
 k-point ** :   0.1979 0.1979 0.0000  plane waves:    5304
 k-point ** :   0.1875 0.1875 0.0000  plane waves:    5292
 k-point ** :   0.1771 0.1771 0.0000  plane waves:    5280
 k-point ** :   0.1667 0.1667 0.0000  plane waves:    5276
 k-point ** :   0.1562 0.1562 0.0000  plane waves:    5276
 k-point ** :   0.1458 0.1458 0.0000  plane waves:    5274
 k-point ** :   0.1354 0.1354 0.0000  plane waves:    5278
 k-point ** :   0.1250 0.1250 0.0000  plane waves:    5279
 k-point ** :   0.1146 0.1146 0.0000  plane waves:    5285
 k-point ** :   0.1042 0.1042 0.0000  plane waves:    5283
 k-point ** :   0.0938 0.0938 0.0000  plane waves:    5283
 k-point ** :   0.0833 0.0833 0.0000  plane waves:    5285
 k-point ** :   0.0729 0.0729 0.0000  plane waves:    5297
 k-point ** :   0.0625 0.0625 0.0000  plane waves:    5285
 k-point ** :   0.0521 0.0521 0.0000  plane waves:    5287
 k-point ** :   0.0417 0.0417 0.0000  plane waves:    5277
 k-point ** :   0.0312 0.0312 0.0000  plane waves:    5281
 k-point ** :   0.0208 0.0208 0.0000  plane waves:    5271
 k-point ** :   0.0104 0.0104 0.0000  plane waves:    5277
 k-point ** :   0.0000 0.0000 0.0000  plane waves:    5285

 maximum and minimum number of plane-waves per node :      5334     5242

 maximum number of plane-waves:      5334
 maximum index in each direction:
   IXMAX=    6   IYMAX=    5   IZMAX=   44
   IXMIN=   -6   IYMIN=   -6   IZMIN=  -44

 serial   3D FFT for wavefunctions
 parallel 3D FFT for charge:
    minimum data exchange during FFTs selected (reduces bandwidth)

 FFT grid for exact exchange (Hartree Fock)
  NGX = 18; NGY = 18; NGZ =140

 Radii for the augmentation spheres in the non-local exchange
 for species   1 augmentation radius   1.478 (default was   1.182)
       energy cutoff for augmentation   2000.0
 for species   2 augmentation radius   1.537 (default was   1.230)
       energy cutoff for augmentation   2000.0
 for species   3 augmentation radius   1.212 (default was   0.970)
       energy cutoff for augmentation   2000.0
 Maximum index for augmentation-charges in exchange         3315
  SETUP_FOCK is finished

 initial charge density was supplied:
 number of electron      36.0000000 magnetization
 keeping initial charge density in first step

 Maximum index for augmentation-charges         1080 (set IRDMAX)

 First call to EWALD:  gamma=   0.299
 Maximum number of real-space cells 5x 5x 1
 Maximum number of reciprocal cells 2x 2x10

--------------------------------------- Iteration      1(   1)  ---------------------------------------

 eigenvalue-minimisations  :     0
 total energy-change (2. order) :-0.5427161E+02  (-0.2767062E-04)
 number of electron      36.0000000 magnetization
 augmentation part       36.0000000 magnetization

 Free energy of the ion-electron system (eV)
  alpha Z        PSCENC =        58.17251497
  Ewald energy   TEWEN  =      6084.01556471
  -Hartree energ DENC   =     -7607.73383039
  -exchange      EXHF   =        60.36546443
  -V(xc)+E(xc)   XCENC  =       -47.77496052
  PAW double counting   =      4696.25998645    -4584.61672145
  entropy T*S    EENTRO =        -0.00000000
  eigenvalues    EBANDS =      -229.42196235
  atomic energy  EATOM  =      1516.46233915
  free energy    TOTEN  =       -54.27160501 eV

  energy without entropy =      -54.27160501  energy(sigma->0) =      -54.27160501
  exchange ACFDT corr.  =        -0.00000000  see jH, gK, PRB 81, 115126

[...]

--------------------------------------- Iteration      1(  10)  ---------------------------------------

 eigenvalue-minimisations  :     0
 total energy-change (2. order) :-0.8467018E-06  (-0.5758120E-06)
 number of electron      36.0000000 magnetization
 augmentation part       36.0000000 magnetization

 Free energy of the ion-electron system (eV)
  alpha Z        PSCENC =        58.17251497
  Ewald energy   TEWEN  =      6084.01556471
  -Hartree energ DENC   =     -7607.73383039
  -exchange      EXHF   =        60.36936802
  -V(xc)+E(xc)   XCENC  =       -47.77496052
  PAW double counting   =      4696.25998645    -4584.61672145
  entropy T*S    EENTRO =        -0.00000000
  eigenvalues    EBANDS =      -229.42580205
  atomic energy  EATOM  =      1516.46233915
  free energy    TOTEN  =       -54.27168953 eV

  energy without entropy =      -54.27168953  energy(sigma->0) =      -54.27168953
  exchange ACFDT corr.  =        -0.00000000  see jH, gK, PRB 81, 115126

  average scaling for gradient   0.8963

 average (electrostatic) potential at core
  the test charge radii are     1.1823  1.2296  0.9698
  (the norm of the test charge is              1.0000)
       1 -41.5355       2 -39.2821       3 -87.9344       4 -87.9556       5 -87.9026
       6 -87.9245

 E-fermi :   0.2279     XC(G=0):  -4.8925     alpha+bet : -6.1130

 k-point     1 :       0.0000    0.0000    0.0000
  band No.  band energies     occupation
      1     -16.9227      2.00000
      2     -16.3473      2.00000
      3     -15.2656      2.00000
      4     -14.9171      2.00000
      5      -7.8498      2.00000
      6      -6.9019      2.00000
      7      -3.6277      2.00000
      8      -3.6277      2.00000
      9      -3.5217      2.00000
     10      -3.5217      2.00000
     11      -3.4667      2.00000
     12      -2.1603      2.00000
     13      -2.1601      2.00000
     14      -2.1572      2.00000
     15      -2.1337      2.00000
     16      -2.1337      2.00000
     17      -0.8663      2.00000
     18       0.0086      2.00000
     19       3.0531      0.00000
     20       3.0532      0.00000
     21       3.2589      0.00000
     22       3.2594      0.00000
     23       3.3451      0.00000
     24       3.3453      0.00000
     25       3.4593      0.00000
     26       3.4595      0.00000
     27       5.3829      0.00000
     28       5.5613      0.00000
     29       6.1771      0.00000
     30       6.6405      0.00000
     31       7.0502      0.00000
     32       7.9300      0.00000
     33       9.3562      0.00000
     34       9.4591      0.00000
     35       9.8014      0.00000
     36      10.9999      0.00000
     37      11.2862      0.00000
     38      11.4590      0.00000
     39      11.4593      0.00000
     40      11.7311      0.00000
     41      11.7315      0.00000
     42      13.2384      0.00000
     43      13.5283      0.00000
     44      13.7674      0.00000
     45      14.1220      0.00000
     46      14.2841      0.00000
     47      15.0220      0.00000
     48      15.6173      0.00000

[...]

 k-point   133 :       0.0000    0.0000    0.0000
  band No.  band energies     occupation
      1     -16.9210      2.00000
      2     -16.3451      2.00000
      3     -15.2643      2.00000
      4     -14.9160      2.00000
      5      -7.8448      2.00000
      6      -6.8935      2.00000
      7      -3.6067      2.00000
      8      -3.5893      2.00000
      9      -3.5012      2.00000
     10      -3.4874      2.00000
     11      -3.4465      2.00000
     12      -2.1489      2.00000
     13      -2.1447      2.00000
     14      -2.1250      2.00000
     15      -1.9008      2.00000
     16      -1.8695      2.00000
     17      -0.8109      2.00000
     18       0.1288      0.00000
     19       3.0203      0.00000
     20       3.0619      0.00000
     21       3.2803      0.00000
     22       3.3366      0.00000
     23       3.3469      0.00000
     24       3.4927      0.00000
     25       3.4973      0.00000
     26       3.9181      0.00000
     27       5.1206      0.00000
     28       5.7207      0.00000
     29       6.7222      0.00000
     30       7.5159      0.00000
     31       8.8708      0.00000
     32       9.4618      0.00000
     33      10.4013      0.00000
     34      10.9840      0.00000
     35      11.6535      0.00000
     36      11.6807      0.00000
     37      13.2744      0.00000
     38      13.8159      0.00000
     39      14.4068      0.00000
     40      15.0272      0.00000
     41      15.3210      0.00000
     42      19.0208      0.00000
     43      19.8711      0.00000
     44      22.0043      0.00000
     45      25.4118      0.00000
     46      25.6635      0.00000
     47      26.1663      0.00000
     48      26.1931      0.00000

 soft charge-density along one line, spin component           1
         0         1         2         3         4         5         6         7         8         9
 total charge-density along one line

------------------------ aborting loop because EDIFF is reached ----------------------------------------

 total charge

# of ion       s       p       d       tot
    1        0.655   0.743   4.468   5.866
    2        0.453   0.638   4.395   5.487
    3        1.354   2.370   0.000   3.725
    4        1.357   2.369   0.000   3.726
    5        1.359   2.346   0.000   3.705
    6        1.361   2.348   0.000   3.709
tot          6.541  10.813   8.863  26.217

         DFTD3 V3.0 Rev 1
 IVDW         = 12
 DF pbe
 parameters
 VDW_S6       =    1.0000
 VDW_S8       =    0.7875
 VDW_A1       =    0.4289
 VDW_A2       =    4.4407
 k1-k3        =   16.0000    1.3333   -4.0000
 VDW_RADIUS   =   50.2022 A
 VDW_CNRADIUS =   21.1671 A
 Edisp (eV)   -2.24804

 E6    (eV) :    -1.2908
 E8    (eV) :    -0.9572
 % E8        : 42.58

  FORCE on cell =-STRESS in cart. coord.  units (eV):
  Direction    XX          YY          ZZ          XY          YZ          ZX
  Alpha Z    58.17251    58.17251    58.17251
  Ewald    7229.90748  7229.90015 -8375.79345     0.00765     0.00674     0.01421
  Hartree  7537.78728  7537.78409 -7467.96305     0.00335     0.00158     0.00333
  E(xc)    -106.95811  -106.95813  -107.99806     0.00002    -0.00009    -0.00020
  Local  -15368.79674-15368.78663 15230.19739    -0.01065    -0.00783    -0.01654
  n-local   243.84053   243.84064   254.55519    -0.00008     0.00048     0.00097
  augment   -55.83651   -55.83648   -57.96834     0.00003    -0.00003    -0.00007
  Kinetic   477.22346   477.22350   480.45968    -0.00010     0.00115     0.00242
  Fock            NaN         NaN         NaN         NaN         NaN         NaN
  vdW        -2.33319    -2.33320    -1.66248     0.00001     0.00000     0.00000
  Total           NaN         NaN         NaN         NaN         NaN         NaN
  in kB           NaN         NaN         NaN         NaN         NaN         NaN

 VOLUME and BASIS-vectors are now :
  energy-cutoff  :      500.00
  volume of cell :      208.25
      direct lattice vectors                 reciprocal lattice vectors
     3.152059248  0.000001834  0.000000000     0.317252813  0.183165354  0.000000000
    -1.576021061  2.729758131  0.000000000    -0.000000213  0.366332699  0.000000000
     0.000000000  0.000000000 24.202400207     0.000000000  0.000000000  0.041318216

  length of vectors
     3.152059248  3.152050418 24.202400207     0.366331673  0.366332699  0.041318216

 FORCES acting on ions
    electron-ion (+dipol)            ewald-force                    non-local-force                 convergence-correction
   0.884E-04 0.133E-05 0.569E+03   -.703E-04 -.195E-04 -.569E+03   -.208E-04 -.119E-04 -.616E-02   -.239E-04 0.940E-05 0.156E-01
   -.420E-03 -.116E-03 -.569E+03   0.349E-03 0.187E-03 0.569E+03   0.220E-03 0.116E-03 0.474E-03   0.142E-03 -.792E-04 -.163E-01
   0.785E-03 0.338E-03 0.100E+04   -.576E-03 -.277E-03 -.101E+04   -.420E-03 -.173E-03 0.450E+01   -.960E-04 -.303E-04 0.168E-01
   0.126E-02 0.997E-03 0.135E+03   -.159E-02 -.771E-03 -.131E+03   0.278E-03 -.702E-04 -.460E+01   0.380E-04 -.152E-03 -.487E-02
   -.213E-02 -.742E-03 -.100E+04   0.167E-02 0.783E-03 0.101E+04   0.805E-03 0.236E-03 -.451E+01   0.185E-03 -.126E-04 -.283E-01
   0.247E-03 -.534E-04 -.135E+03   0.216E-03 0.965E-04 0.130E+03   -.868E-03 -.328E-03 0.468E+01   -.118E-03 0.283E-04 0.154E-01
   -.172E-03 0.425E-03 -.743E-01   0.240E-13 0.352E-13 -.171E-12   -.544E-05 -.231E-03 0.663E-01   0.127E-03 -.237E-03 -.156E-02

 POSITION                                       TOTAL-FORCE (eV/Angst)
     -0.00341      1.81819      7.06847              NaN           NaN           NaN
      1.57108      2.72738     13.10690              NaN           NaN           NaN
      1.57265      0.90829      5.49316              NaN           NaN           NaN
      1.57260      0.90826      8.64154              NaN           NaN           NaN
     -0.00501      1.81743     14.67595              NaN           NaN           NaN
     -0.00486      1.81750     11.54184              NaN           NaN           NaN
    total drift:                                     NaN           NaN           NaN

  FREE ENERGIE OF THE ION-ELECTRON SYSTEM (eV)
  free  energy   TOTEN  =       -56.51973310 eV

  energy  without entropy=      -56.51973310  energy(sigma->0) =      -56.51973310

 writing wavefunctions

 total charge

# of ion       s       p       d       tot
    1        0.655   0.743   4.468   5.866
    2        0.453   0.638   4.395   5.487
    3        1.354   2.370   0.000   3.725
    4        1.357   2.369   0.000   3.726
    5        1.359   2.346   0.000   3.705
    6        1.361   2.348   0.000   3.709
tot          6.541  10.813   8.863  26.217